1951  0.00125
1952  0.00125
1953  0.00125
1954  0.00125
1955  0.00125
1956  0.00125
1957  0.00125
1958  0.00125
1959  0.00125
1960  0.00125
1961  0.00125
1962  0.00125
1963  0.00125
1964  0.00125
1965  0.00125
1966  0.00125
1967  0.00125
1968  0.00125
1969  0.00125
1970  0.00125
1971  0.00125
1972  0.00125
1973  0.00125
1974  0.00125
1975  0.00125
1976  0.00125
1977  0.00125
1978  0.00125
1979  0.00125
1980  0.00125
1981  0.00125
1982  0.00125
1983  0.00125
1984  0.00125
1985  0.00125
1986  0.00125
1987  0.00125
1988  0.00125
1989  0.00125
1990  0.00125
1991  0.00125
1992  0.00125
1993  0.00125
1994  0.00125
1995  0.00125
1996  0.00125
1997  0.00125
1998  0.00125
1999  0.00125
2000  0.00125
2001  0.00126
2002  0.00127
2003  0.00128
2004  0.00129
2005  0.00130
2006  0.00131
2007  0.00132
2008  0.00133
2009  0.00134
2010  0.00135
2011  0.00136
2012  0.00137
2013  0.00138
2014  0.00139
2015  0.00140
2016  0.00141
2017  0.00142
2018  0.00143
2019  0.00144
2020  0.00145
2021  0.00146
2022  0.00147
2023  0.00148
2024  0.00149
2025  0.00150
2026  0.00151
2027  0.00152
2028  0.00153
2029  0.00154
2030  0.00155
2031  0.00156
2032  0.00157
2033  0.00158
2034  0.00159
2035  0.00160
2036  0.00161
2037  0.00162
2038  0.00163
2039  0.00164
2040  0.00165
2041  0.00166
2042  0.00167
2043  0.00168
2044  0.00169
2045  0.00170
2046  0.00171
2047  0.00172
2048  0.00173
2049  0.00174
2050  0.00175
2051  0.00176
2052  0.00177
2053  0.00178
2054  0.00179
2055  0.00180
2056  0.00181
2057  0.00182
2058  0.00183
2059  0.00184
2060  0.00185
2061  0.00186
2062  0.00187
2063  0.00188
2064  0.00189
2065  0.00190
2066  0.00191
2067  0.00192
2068  0.00193
2069  0.00194
2070  0.00195
2071  0.00196
2072  0.00197
2073  0.00198
2074  0.00199
2075  0.00200
2076  0.00201
2077  0.00202
2078  0.00203
2079  0.00204
2080  0.00205
2081  0.00206
2082  0.00207
2083  0.00208
2084  0.00209
2085  0.00210
2086  0.00211
2087  0.00212
2088  0.00213
2089  0.00214
2090  0.00215
2091  0.00216
2092  0.00217
2093  0.00218
2094  0.00219
2095  0.00220
2096  0.00221
2097  0.00222
2098  0.00223
2099  0.00224
2100  0.00225
